hyperperiod_length = 55;
num_links = 6;
num_packets = 5;

% f1:0 f2:0 f3:0 f4:0 f5:0 
occupancy = 
[|      15,      27,      -1,      -1,      -1,  %0-1
 |      -1,      27,      -1,      -1,      -1,  %1-3
 |      -1,      -1,      16,      22,      -1,  %2-3
 |      -1,      -1,      -1,      -1,      18,  %2-0
 |      -1,      -1,      -1,      22,      -1,  %3-1
 |      -1,      -1,      -1,      -1,      18,  %3-2
|];

% f1:0 f2:0 f3:0 f4:0 f5:0 
deadline = 
[|      55,      55,      -1,      -1,      -1,  %0-1
 |      -1,      55,      -1,      -1,      -1,  %1-3
 |      -1,      -1,      55,      55,      -1,  %2-3
 |      -1,      -1,      -1,      -1,      55,  %2-0
 |      -1,      -1,      -1,      55,      -1,  %3-1
 |      -1,      -1,      -1,      -1,      55,  %3-2
|];

% f1:0 f2:0 f3:0 f4:0 f5:0 
min_start = 
[|       0,       0,      -1,      -1,      -1,  %0-1
 |      -1,       0,      -1,      -1,      -1,  %1-3
 |      -1,      -1,       0,       0,      -1,  %2-3
 |      -1,      -1,      -1,      -1,       0,  %2-0
 |      -1,      -1,      -1,       0,      -1,  %3-1
 |      -1,      -1,      -1,      -1,       0,  %3-2
|];
